NAME : n100w60.002.659.tour
COMMENT : Length = 659
COMMENT : Found by LKH [Keld Helsgaun] Tue May  2 05:18:30 2017
TYPE : TOUR
DIMENSION : 101
TOUR_SECTION
1
57
43
100
67
59
64
41
84
39
71
40
24
53
17
9
98
45
23
75
96
78
65
6
55
54
38
18
47
42
86
25
99
33
46
48
27
79
31
28
76
36
80
22
93
63
52
4
34
70
13
81
14
91
88
19
97
12
20
21
85
90
7
5
73
50
29
69
35
95
87
82
49
66
51
62
37
94
15
74
44
72
56
11
58
92
68
3
77
83
30
32
60
89
61
26
2
10
101
16
8
-1
EOF
